NAME: random84
TYPE: TSP
DIMENSION: 84
EDGE_WEIGHT_TYPE: EXPLICIT
EDGE_WEIGHT_FORMAT: FULL_MATRIX
EDGE_WEIGHT_SECTION
0 32 1290 17 1290 27 1290 1290 1290 1290 1290 63 1290 1290 1290 1290 27 46 17 33 33 1290 1290 21 1290 25 1290 1290 1290 33 1290 1290 1290 61 1290 9 41 1290 19 1290 1290 44 26 1290 1290 22 1290 1290 1290 28 1290 1290 1290 1290 1290 1290 1290 1290 1290 1290 1290 1290 1290 23 28 1290 1290 1290 1290 24 25 10 1290 1290 1290 15 1290 1290 1290 1290 29 1290 13 1290
32 0 1290 1290 1290 14 1290 1290 1290 1290 1290 40 24 1290 1290 1290 1290 22 15 1290 11 1290 1290 1290 1290 18 1290 22 1290 24 57 35 1290 42 66 1290 1290 22 14 33 1290 1290 1290 1290 1290 13 34 1290 21 1290 1290 1290 60 31 1290 1290 3 13 1290 42 29 14 1290 10 1290 1290 7 1290 36 1290 24 23 1290 33 1290 18 1290 1290 1290 18 24 34 20 32
1290 1290 0 1290 57 1290 17 53 74 6 38 1290 1290 1290 1 1290 1290 1290 1290 1290 1290 15 42 1290 1290 1290 1290 1290 14 1290 54 1290 1290 1290 1290 1290 77 1290 1290 1290 1290 69 1290 59 47 1290 1290 1290 1290 1290 29 9 1290 1290 52 79 1290 1290 35 1290 1290 1290 1290 1290 1290 36 1290 6 1290 1290 1290 1290 8 1290 1290 1290 35 60 67 1290 1290 1290 1290 1290
17 1290 1290 0 1290 26 1290 1290 1290 1290 1290 1290 1290 1290 1290 1290 16 1290 24 17 1290 1290 1290 16 29 38 1290 1290 1290 47 1290 1290 19 74 1290 16 26 25 25 1290 30 27 11 1290 1290 32 1290 1290 1290 16 1290 1290 1290 1290 38 1290 1290 1290 1290 1290 27 1290 1290 1290 12 1290 1290 1290 1290 15 40 18 1290 1290 1290 25 1290 27 1290 1290 21 1290 20 1290
1290 1290 57 1290 0 1290 1290 1290 1290 52 20 1290 1290 23 56 19 23 1290 1290 11 1290 1290 15 38 25 1290 29 1290 1290 1290 1290 1290 9 1290 1290 1290 23 1290 1290 1290 14 15 19 1290 1290 1290 1290 1290 1290 22 1290 49 1290 1290 11 1290 1290 1290 24 1290 26 1290 35 1290 20 23 1290 1290 1290 33 1290 1290 1290 1290 25 1290 1290 4 1290 1290 29 1290 1290 29
27 14 1290 26 1290 0 1290 1290 1290 1290 1290 1290 35 1290 1290 1290 17 36 13 30 24 1290 1290 1290 19 26 1290 17 1290 1290 1290 1290 31 1290 1290 1290 1290 8 11 1290 30 1290 24 1290 1290 19 1290 1290 26 17 1290 1290 1290 1290 1290 1290 11 16 1290 1290 16 6 1290 9 1290 1290 8 1290 1290 1290 31 18 1290 1290 1290 17 1290 1290 1290 12 10 1290 15 21
1290 1290 17 1290 1290 1290 0 40 57 19 37 1290 1290 34 16 41 1290 1290 1290 1290 1290 3 1290 1290 1290 1290 1290 1290 5 1290 38 1290 1290 1290 1290 1290 1290 1290 1290 1290 1290 1290 1290 43 31 1290 1290 43 1290 1290 16 20 1290 1290 1290 63 1290 1290 39 1290 1290 1290 45 1290 1290 34 1290 11 48 1290 1290 1290 9 1290 34 1290 19 1290 50 1290 1290 1290 1290 1290
1290 1290 53 1290 1290 1290 40 0 40 1290 36 1290 42 33 1290 29 1290 1290 1290 1290 1290 42 42 1290 27 1290 21 20 39 1290 19 32 1290 1290 45 1290 1290 1290 1290 1290 33 1290 1290 35 18 1290 12 5 28 1290 24 50 37 43 1290 49 1290 30 46 46 28 1290 13 1290 1290 34 1290 48 8 1290 1290 1290 47 1290 27 1290 23 1290 42 25 1290 1290 1290 21
1290 1290 74 1290 1290 1290 57 40 0 1290 1290 82 53 1290 1290 1290 1290 74 1290 1290 1290 59 1290 1290 1290 1290 1290 54 60 1290 24 36 1290 88 12 1290 1290 1290 1290 61 1290 1290 1290 15 30 1290 51 43 47 1290 50 1290 10 48 1290 8 1290 1290 1290 41 1290 1290 53 1290 1290 1290 1290 1290 40 1290 1290 1290 66 53 65 1290 41 1290 12 1290 1290 48 1290 1290
1290 1290 6 1290 52 1290 19 1290 1290 0 34 1290 1290 32 5 42 1290 1290 1290 62 1290 19 37 90 1290 1290 1290 1290 16 1290 1290 1290 60 1290 1290 1290 72 1290 1290 1290 49 64 1290 62 1290 1290 1290 1290 1290 1290 29 3 1290 1290 47 1290 1290 1290 29 1290 1290 1290 1290 1290 72 31 1290 9 1290 85 1290 1290 11 1290 1290 1290 36 55 69 1290 1290 1290 1290 1290
1290 1290 38 1290 20 1290 37 36 1290 34 0 1290 1290 4 37 11 1290 1290 1290 1290 1290 40 7 1290 27 1290 26 1290 33 1290 1290 1290 26 1290 1290 1290 42 1290 1290 1290 16 34 1290 1290 1290 1290 31 36 1290 33 29 30 1290 1290 20 1290 1290 1290 11 1290 1290 1290 29 1290 1290 3 1290 36 1290 1290 1290 1290 38 1290 9 1290 38 24 1290 1290 1290 1290 1290 27
63 40 1290 1290 1290 1290 1290 1290 82 1290 1290 0 32 1290 1290 1290 1290 19 1290 1290 32 1290 1290 1290 1290 37 1290 1290 1290 30 81 48 1290 6 74 72 1290 1290 1290 21 1290 1290 1290 92 1290 42 1290 1290 46 1290 1290 1290 73 35 1290 88 43 47 1290 42 1290 1290 1290 48 1290 1290 1290 1290 66 1290 38 1290 1290 29 1290 49 1290 1290 93 1290 1290 34 1290 1290
1290 24 1290 1290 1290 35 1290 42 53 1290 1290 32 0 1290 1290 1290 1290 21 39 1290 26 1290 1290 1290 1290 37 1290 30 1290 37 49 17 1290 37 47 1290 1290 40 37 13 1290 1290 1290 60 54 35 40 39 15 1290 1290 1290 44 7 1290 1290 25 21 1290 19 46 31 1290 34 1290 1290 27 1290 34 1290 41 1290 1290 10 1290 41 1290 1290 1290 31 1290 10 1290 44
1290 1290 1290 1290 23 1290 34 33 1290 32 4 1290 1290 0 35 10 1290 1290 1290 1290 1290 36 11 1290 26 1290 25 1290 30 1290 46 1290 29 1290 1290 1290 1290 1290 1290 1290 17 1290 1290 60 41 1290 29 33 1290 34 25 29 1290 1290 24 1290 1290 1290 13 1290 1290 1290 27 1290 1290 1 1290 34 39 1290 1290 1290 35 1290 5 1290 34 1290 1290 1290 1290 1290 1290 26
1290 1290 1 1290 56 1290 16 1290 1290 5 37 1290 1290 35 0 1290 1290 1290 1290 1290 1290 15 41 1290 1290 1290 1290 1290 13 1290 1290 1290 1290 1290 1290 1290 76 1290 1290 1290 1290 68 1290 59 1290 1290 1290 1290 1290 1290 28 8 1290 1290 51 1290 1290 1290 34 1290 1290 1290 1290 1290 1290 34 1290 5 1290 1290 1290 1290 7 1290 1290 1290 34 59 66 1290 1290 1290 1290 1290
1290 1290 1290 1290 19 1290 41 29 1290 42 11 1290 1290 10 1290 0 25 1290 1290 23 1290 1290 15 1290 16 1290 16 30 38 1290 45 1290 22 1290 1290 1290 42 1290 1290 1290 8 35 27 1290 41 1290 22 28 1290 24 29 39 1290 1290 25 1290 1290 1290 21 1290 19 1290 19 1290 1290 11 1290 1290 33 1290 1290 1290 1290 1290 8 1290 37 23 1290 31 26 1290 1290 16
27 1290 1290 16 23 17 1290 1290 1290 1290 1290 1290 1290 1290 1290 25 0 1290 23 14 1290 1290 33 32 13 39 19 1290 1290 1290 1290 1290 15 1290 1290 30 34 12 22 1290 18 31 8 1290 1290 31 1290 1290 1290 1 1290 1290 1290 1290 1290 1290 1290 1290 1290 1290 11 20 1290 23 21 1290 25 1290 1290 30 42 22 1290 1290 1290 26 1290 24 1290 22 8 1290 21 19
46 22 1290 1290 1290 36 1290 1290 74 1290 1290 19 21 1290 1290 1290 1290 0 32 1290 13 1290 1290 1290 1290 21 1290 41 1290 18 69 38 1290 21 68 55 1290 1290 31 19 1290 1290 1290 1290 1290 24 1290 1290 31 1290 1290 1290 65 27 1290 81 25 30 1290 38 1290 35 1290 29 1290 1290 28 1290 50 1290 24 1290 1290 24 1290 32 1290 1290 1290 38 1290 28 1290 1290
17 15 1290 24 1290 13 1290 1290 1290 1290 1290 1290 39 1290 1290 1290 23 32 0 1290 19 1290 1290 1290 1290 16 1290 1290 1290 25 1290 1290 1290 50 1290 26 1290 20 2 1290 1290 1290 27 1290 1290 9 1290 1290 1290 23 1290 1290 1290 1290 1290 1290 15 25 1290 1290 27 18 1290 6 1290 1290 14 1290 1290 1290 20 8 1290 1290 1290 5 1290 1290 1290 1290 19 1290 4 1290
33 1290 1290 17 11 30 1290 1290 1290 62 1290 1290 1290 1290 1290 23 14 1290 1290 0 1290 1290 25 29 21 1290 27 1290 1290 1290 1290 1290 2 1290 1290 33 22 25 1290 1290 16 17 8 1290 1290 1290 1290 1290 1290 13 1290 1290 1290 1290 22 1290 1290 1290 34 1290 21 1290 1290 1290 12 1290 1290 1290 1290 25 1290 32 1290 1290 1290 1290 1290 11 1290 35 21 1290 32 27
33 11 1290 1290 1290 24 1290 1290 1290 1290 1290 32 26 1290 1290 1290 1290 13 19 1290 0 1290 1290 1290 1290 11 1290 33 1290 13 1290 41 1290 32 72 43 1290 1290 18 30 1290 1290 1290 1290 1290 11 1290 1290 29 1290 1290 1290 1290 33 1290 1290 14 23 1290 45 1290 25 1290 16 1290 1290 18 1290 1290 1290 16 26 1290 33 1290 18 1290 1290 1290 30 1290 1290 23 1290
1290 1290 15 1290 1290 1290 3 42 59 19 40 1290 1290 36 15 1290 1290 1290 1290 1290 1290 0 1290 1290 1290 1290 1290 1290 6 1290 40 72 1290 1290 70 1290 1290 1290 1290 1290 1290 1290 1290 44 33 1290 1290 46 1290 1290 19 20 63 1290 58 64 1290 1290 40 1290 1290 1290 48 1290 1290 37 1290 10 50 1290 1290 1290 8 1290 37 1290 21 1290 51 1290 1290 1290 1290 1290
1290 1290 42 1290 15 1290 1290 42 1290 37 7 1290 1290 11 41 15 33 1290 1290 25 1290 1290 0 52 29 1290 30 1290 40 1290 1290 1290 23 1290 1290 1290 36 1290 1290 1290 17 28 32 1290 1290 1290 36 42 1290 32 36 34 1290 1290 12 1290 1290 1290 9 1290 31 1290 34 1290 35 11 1290 42 1290 48 1290 1290 1290 1290 16 1290 1290 18 1290 1290 37 1290 1290 31
21 1290 1290 16 38 1290 1290 1290 1290 90 1290 1290 1290 1290 1290 1290 32 1290 1290 29 1290 1290 52 0 1290 47 1290 1290 1290 54 1290 1290 1290 82 1290 13 24 1290 1290 1290 1290 30 26 1290 1290 1290 1290 1290 1290 32 1290 1290 1290 1290 45 1290 1290 1290 61 1290 1290 1290 1290 1290 18 1290 1290 1290 1290 5 46 28 1290 1290 1290 36 1290 35 1290 1290 38 1290 32 1290
1290 1290 1290 29 25 19 1290 27 1290 1290 27 1290 1290 26 1290 16 13 1290 1290 21 1290 1290 29 1290 0 1290 6 18 1290 1290 1290 1290 20 1290 1290 1290 1290 10 1290 1290 12 38 19 1290 1290 1290 15 24 34 13 1290 1290 1290 1290 35 1290 1290 26 37 1290 3 18 14 1290 32 1290 1290 1290 27 1290 1290 32 1290 1290 23 1290 1290 28 1290 16 11 1290 30 6
25 18 1290 38 1290 26 1290 1290 1290 1290 1290 37 37 1290 1290 1290 39 21 16 1290 11 1290 1290 47 1290 0 1290 1290 1290 8 1290 1290 1290 36 1290 35 1290 1290 17 40 1290 1290 1290 1290 1290 8 1290 1290 1290 1290 1290 1290 1290 1290 1290 1290 21 31 1290 1290 1290 1290 1290 17 1290 1290 23 1290 1290 1290 6 20 1290 1290 1290 13 1290 1290 1290 1290 35 1290 19 1290
1290 1290 1290 1290 29 1290 1290 21 1290 1290 26 1290 1290 25 1290 16 19 1290 1290 27 1290 1290 30 1290 6 1290 0 15 1290 1290 39 1290 26 1290 1290 1290 1290 14 1290 1290 15 1290 26 1290 38 1290 9 17 31 19 34 1290 1290 1290 38 1290 1290 25 37 1290 8 19 8 1290 1290 27 1290 1290 21 1290 1290 1290 1290 1290 21 1290 38 33 1290 15 16 1290 1290 1
1290 22 1290 1290 1290 17 1290 20 54 1290 1290 1290 30 1290 1290 30 1290 41 1290 1290 33 1290 1290 1290 18 1290 15 0 1290 1290 37 29 1290 1290 1290 1290 1290 15 1290 43 29 1290 1290 52 38 33 12 15 16 27 42 1290 47 34 1290 1290 19 11 1290 42 17 11 14 24 1290 1290 17 1290 15 1290 1290 1290 1290 40 34 1290 43 1290 1290 6 19 1290 1290 14
1290 1290 14 1290 1290 1290 5 39 60 16 33 1290 1290 30 13 38 1290 1290 1290 1290 1290 6 40 1290 1290 1290 1290 1290 0 1290 40 1290 1290 1290 1290 1290 1290 1290 1290 1290 1290 1290 1290 46 33 1290 1290 43 1290 1290 15 16 1290 1290 51 66 1290 1290 34 1290 1290 1290 43 1290 1290 30 1290 9 47 1290 1290 1290 8 1290 31 1290 20 1290 53 1290 1290 1290 1290 1290
33 24 1290 47 1290 1290 1290 1290 1290 1290 1290 30 37 1290 1290 1290 1290 18 25 1290 13 1290 1290 54 1290 8 1290 1290 1290 0 1290 53 1290 28 84 42 1290 1290 25 37 1290 1290 1290 1290 1290 16 1290 1290 42 1290 1290 1290 1290 43 1290 1290 26 36 1290 55 1290 1290 1290 25 1290 1290 1290 1290 1290 1290 8 28 1290 42 1290 22 1290 1290 1290 1290 1290 1290 27 1290
1290 57 54 1290 1290 1290 38 19 24 1290 1290 81 49 46 1290 45 1290 69 1290 1290 1290 40 1290 1290 1290 1290 39 37 40 1290 0 34 1290 1290 32 1290 1290 1290 1290 61 1290 1290 1290 16 7 1290 31 23 38 1290 27 1290 24 47 1290 31 1290 44 1290 45 1290 1290 31 1290 1290 48 1290 1290 22 1290 1290 1290 47 54 42 1290 20 1290 23 42 1290 49 1290 40
1290 35 1290 1290 1290 1290 1290 32 36 1290 1290 48 17 1290 1290 1290 1290 38 1290 1290 41 72 1290 1290 1290 1290 1290 29 1290 53 34 0 1290 53 31 1290 1290 1290 1290 27 1290 1290 1290 43 40 48 35 30 15 1290 55 1290 27 13 1290 43 35 25 1290 14 1290 35 37 44 1290 1290 35 1290 25 1290 1290 1290 1290 20 58 1290 51 1290 46 32 1290 15 1290 42
1290 1290 1290 19 9 31 1290 1290 1290 60 26 1290 1290 29 1290 22 15 1290 1290 2 1290 1290 23 1290 20 1290 26 1290 1290 1290 1290 1290 0 1290 1290 1290 22 25 1290 1290 14 17 10 1290 1290 1290 1290 1290 1290 14 1290 1290 1290 1290 20 1290 1290 1290 32 1290 21 1290 34 1290 14 1290 1290 1290 1290 27 1290 34 1290 1290 29 1290 1290 10 1290 35 22 1290 34 26
61 42 1290 74 1290 1290 1290 1290 88 1290 1290 6 37 1290 1290 1290 1290 21 50 1290 32 1290 1290 82 1290 36 1290 1290 1290 28 1290 53 1290 0 79 70 1290 1290 1290 27 1290 1290 1290 1290 1290 42 1290 1290 50 1290 1290 1290 78 40 1290 93 45 50 1290 47 1290 1290 1290 48 1290 1290 1290 1290 1290 1290 36 56 1290 34 1290 48 1290 1290 1290 1290 1290 40 54 1290
1290 66 1290 1290 1290 1290 1290 45 12 1290 1290 74 47 1290 1290 1290 1290 68 1290 1290 72 70 1290 1290 1290 1290 1290 1290 1290 84 32 31 1290 79 0 1290 1290 1290 1290 53 1290 1290 1290 27 39 1290 1290 1290 45 1290 1290 1290 8 41 1290 14 1290 1290 1290 32 1290 1290 1290 1290 1290 1290 1290 1290 42 1290 87 1290 1290 45 1290 1290 51 1290 24 1290 1290 40 1290 1290
9 1290 1290 16 1290 1290 1290 1290 1290 1290 1290 72 1290 1290 1290 1290 30 55 26 33 43 1290 1290 13 1290 35 1290 1290 1290 42 1290 1290 1290 70 1290 0 35 1290 1290 1290 1290 40 27 1290 1290 32 1290 1290 1290 31 1290 1290 1290 1290 53 1290 1290 1290 1290 1290 1290 1290 1290 1290 25 1290 1290 1290 1290 16 34 18 1290 1290 1290 25 1290 1290 1290 1290 34 1290 22 1290
41 1290 77 26 23 1290 1290 1290 1290 72 42 1290 1290 1290 76 42 34 1290 1290 22 1290 1290 36 24 1290 1290 1290 1290 1290 1290 1290 1290 22 1290 1290 35 0 1290 1290 1290 36 8 26 1290 1290 1290 1290 1290 1290 33 1290 69 1290 1290 25 1290 1290 1290 43 1290 1290 1290 1290 1290 14 46 1290 1290 1290 20 66 44 1290 1290 1290 1290 1290 19 1290 1290 1290 1290 1290 1290
1290 22 1290 25 1290 8 1290 1290 1290 1290 1290 1290 40 1290 1290 1290 12 1290 20 25 1290 1290 1290 1290 10 1290 14 15 1290 1290 1290 1290 25 1290 1290 1290 1290 0 18 1290 22 1290 19 1290 1290 27 20 1290 29 12 1290 1290 1290 1290 1290 1290 19 19 1290 1290 8 9 20 17 1290 1290 15 1290 29 1290 1290 23 1290 1290 1290 24 1290 1290 1290 11 4 1290 21 14
19 14 1290 25 1290 11 1290 1290 1290 1290 1290 1290 37 1290 1290 1290 22 31 2 1290 18 1290 1290 1290 1290 17 1290 1290 1290 25 1290 1290 1290 1290 1290 1290 1290 18 0 1290 1290 1290 27 1290 1290 9 1290 1290 1290 23 1290 1290 1290 1290 1290 1290 13 23 1290 1290 26 16 1290 4 1290 1290 12 1290 1290 1290 21 10 1290 1290 1290 6 1290 1290 1290 22 18 1290 6 1290
1290 33 1290 1290 1290 1290 1290 1290 61 1290 1290 21 13 1290 1290 1290 1290 19 1290 1290 30 1290 1290 1290 1290 40 1290 43 1290 37 61 27 1290 27 53 1290 1290 1290 1290 0 1290 1290 1290 1290 1290 41 1290 1290 28 1290 1290 1290 52 14 1290 67 35 33 1290 21 1290 43 1290 42 1290 1290 38 1290 48 1290 43 1290 1290 8 1290 1290 1290 1290 1290 43 1290 13 1290 1290
1290 1290 1290 30 14 30 1290 33 1290 49 16 1290 1290 17 1290 8 18 1290 1290 16 1290 1290 17 1290 12 1290 15 29 1290 1290 1290 1290 14 1290 1290 1290 36 22 1290 1290 0 29 19 1290 1290 1290 23 31 1290 17 37 46 1290 1290 23 1290 1290 1290 25 1290 14 1290 21 1290 28 18 1290 1290 1290 1290 1290 40 1290 1290 15 1290 1290 18 1290 28 20 1290 39 15
44 1290 69 27 15 1290 1290 1290 1290 64 34 1290 1290 1290 68 35 31 1290 1290 17 1290 1290 28 30 38 1290 1290 1290 1290 1290 1290 1290 17 1290 1290 40 8 1290 1290 1290 29 0 24 1290 1290 1290 1290 1290 1290 30 1290 61 1290 1290 17 1290 1290 1290 34 1290 38 1290 1290 1290 15 37 1290 1290 1290 25 1290 45 1290 1290 1290 1290 1290 11 1290 1290 38 1290 1290 1290
26 1290 1290 11 19 24 1290 1290 1290 1290 1290 1290 1290 1290 1290 27 8 1290 27 8 1290 1290 32 26 19 1290 26 1290 1290 1290 1290 1290 10 1290 1290 27 26 19 27 1290 19 24 0 1290 1290 1290 1290 1290 1290 7 1290 1290 1290 1290 30 1290 1290 1290 1290 1290 18 1290 1290 1290 13 1290 1290 1290 1290 23 46 24 1290 1290 1290 30 1290 19 1290 30 15 1290 24 25
1290 1290 59 1290 1290 1290 43 35 15 62 1290 92 60 60 59 1290 1290 1290 1290 1290 1290 44 1290 1290 1290 1290 1290 52 46 1290 16 43 1290 1290 27 1290 1290 1290 1290 1290 1290 1290 1290 0 19 1290 47 39 51 1290 37 62 22 57 1290 20 1290 1290 1290 52 1290 1290 48 1290 1290 61 1290 54 37 1290 1290 1290 52 1290 56 1290 28 1290 8 1290 1290 1290 1290 1290
1290 1290 47 1290 1290 1290 31 18 30 1290 1290 1290 54 41 1290 41 1290 1290 1290 1290 1290 33 1290 1290 1290 1290 38 38 33 1290 7 40 1290 1290 39 1290 1290 1290 1290 1290 1290 1290 1290 19 0 1290 30 23 42 1290 20 1290 31 53 1290 37 1290 1290 1290 52 1290 1290 30 1290 1290 42 1290 1290 23 1290 1290 1290 40 1290 37 1290 12 1290 27 1290 1290 1290 1290 38
22 13 1290 32 1290 19 1290 1290 1290 1290 1290 42 35 1290 1290 1290 31 24 9 1290 11 1290 1290 1290 1290 8 1290 33 1290 16 1290 48 1290 42 1290 32 1290 27 9 41 1290 1290 1290 1290 1290 0 1290 1290 34 1290 1290 1290 1290 42 1290 1290 14 25 1290 1290 1290 22 1290 9 1290 1290 16 1290 1290 1290 13 15 1290 43 1290 7 1290 1290 1290 28 27 1290 12 1290
1290 34 1290 1290 1290 1290 1290 12 51 1290 31 1290 40 29 1290 22 1290 1290 1290 1290 1290 1290 36 1290 15 1290 9 12 1290 1290 31 35 1290 1290 1290 1290 1290 20 1290 1290 23 1290 1290 47 30 1290 0 8 25 28 30 1290 47 43 1290 1290 31 23 1290 49 17 21 2 1290 1290 1290 28 1290 12 1290 1290 1290 1290 1290 24 1290 33 1290 1290 15 23 1290 1290 9
1290 1290 1290 1290 1290 1290 43 5 43 1290 36 1290 39 33 1290 28 1290 1290 1290 1290 1290 46 42 1290 24 1290 17 15 43 1290 23 30 1290 1290 1290 1290 1290 1290 1290 1290 31 1290 1290 39 23 1290 8 0 24 1290 28 1290 39 41 1290 1290 1290 25 1290 45 25 1290 10 1290 1290 35 1290 1290 6 1290 1290 1290 1290 1290 28 1290 28 1290 1290 21 1290 1290 1290 17
1290 21 1290 1290 1290 26 1290 28 47 1290 1290 46 15 1290 1290 1290 1290 31 1290 1290 29 1290 1290 1290 34 1290 31 16 1290 42 38 15 1290 50 45 1290 1290 29 1290 28 1290 1290 1290 51 42 34 25 24 0 1290 52 1290 39 18 1290 1290 20 11 1290 26 33 21 28 29 1290 1290 21 1290 20 1290 1290 1290 1290 24 49 1290 50 1290 1290 18 1290 21 1290 30
28 1290 1290 16 22 17 1290 1290 1290 1290 33 1290 1290 34 1290 24 1 1290 23 13 1290 1290 32 32 13 1290 19 27 1290 1290 1290 1290 14 1290 1290 31 33 12 23 1290 17 30 7 1290 1290 1290 28 1290 1290 0 1290 1290 1290 1290 33 1290 1290 31 41 1290 11 21 27 24 20 1290 25 1290 1290 30 1290 23 1290 1290 32 27 1290 24 1290 23 8 1290 22 19
1290 1290 29 1290 1290 1290 16 24 50 29 29 1290 1290 25 28 29 1290 1290 1290 1290 1290 19 36 1290 1290 1290 34 42 15 1290 27 55 1290 1290 1290 1290 1290 1290 1290 1290 37 1290 1290 37 20 1290 30 28 52 1290 0 28 51 1290 49 1290 1290 1290 34 1290 1290 1290 29 1290 1290 26 1290 24 32 1290 1290 1290 23 1290 23 1290 9 1290 45 1290 1290 1290 1290 35
1290 1290 9 1290 49 1290 20 50 1290 3 30 1290 1290 29 8 39 1290 1290 1290 1290 1290 20 34 1290 1290 1290 1290 1290 16 1290 1290 1290 1290 1290 1290 1290 69 1290 1290 1290 46 61 1290 62 1290 1290 1290 1290 1290 1290 28 0 1290 1290 44 1290 1290 1290 26 1290 1290 1290 1290 1290 1290 28 1290 11 1290 1290 1290 1290 13 1290 32 1290 35 52 69 1290 1290 1290 1290 1290
1290 60 1290 1290 1290 1290 1290 37 10 1290 1290 73 44 1290 1290 1290 1290 65 1290 1290 1290 63 1290 1290 1290 1290 1290 47 1290 1290 24 27 1290 78 8 1290 1290 1290 1290 52 1290 1290 1290 22 31 1290 47 39 39 1290 51 1290 0 39 1290 16 1290 49 1290 31 1290 1290 48 1290 1290 1290 1290 1290 35 1290 1290 1290 1290 44 64 1290 43 1290 21 1290 1290 39 1290 1290
1290 31 1290 1290 1290 1290 1290 43 48 1290 1290 35 7 1290 1290 1290 1290 27 1290 1290 33 1290 1290 1290 1290 1290 1290 34 1290 43 47 13 1290 40 41 1290 1290 1290 1290 14 1290 1290 1290 57 53 42 43 41 18 1290 1290 1290 39 0 1290 54 32 26 1290 11 1290 37 1290 41 1290 1290 34 1290 35 1290 1290 1290 1290 7 1290 1290 1290 1290 1290 36 1290 3 1290 1290
1290 1290 52 38 11 1290 1290 1290 1290 47 20 1290 1290 24 51 25 1290 1290 1290 22 1290 58 12 45 35 1290 38 1290 51 1290 1290 1290 20 1290 1290 53 25 1290 1290 1290 23 17 30 1290 1290 1290 1290 1290 1290 33 49 44 1290 1290 0 1290 1290 1290 18 1290 1290 1290 43 1290 28 23 1290 52 1290 40 1290 1290 54 1290 28 1290 1290 11 1290 1290 1290 1290 1290 1290
1290 1290 79 1290 1290 1290 63 49 8 1290 1290 88 1290 1290 1290 1290 1290 81 1290 1290 1290 64 1290 1290 1290 1290 1290 1290 66 1290 31 43 1290 93 14 1290 1290 1290 1290 67 1290 1290 1290 20 37 1290 1290 1290 1290 1290 1290 1290 16 54 1290 0 1290 1290 1290 46 1290 1290 1290 1290 1290 1290 1290 1290 48 1290 1290 1290 72 59 1290 1290 47 1290 13 1290 1290 54 1290 1290
1290 3 1290 1290 1290 11 1290 1290 1290 1290 1290 43 25 1290 1290 1290 1290 25 15 1290 14 1290 1290 1290 1290 21 1290 19 1290 26 1290 35 1290 45 1290 1290 1290 19 13 35 1290 1290 1290 1290 1290 14 31 1290 20 1290 1290 1290 1290 32 1290 1290 0 11 1290 1290 26 11 1290 9 1290 1290 3 1290 33 1290 1290 1290 1290 34 1290 18 1290 1290 1290 15 21 1290 19 29
1290 13 1290 1290 1290 16 1290 30 1290 1290 1290 47 21 1290 1290 1290 1290 30 25 1290 23 1290 1290 1290 26 31 25 11 1290 36 44 25 1290 50 1290 1290 1290 19 23 33 1290 1290 1290 1290 1290 25 23 25 11 31 1290 1290 49 26 1290 1290 11 0 1290 36 25 11 25 19 1290 1290 11 1290 23 1290 1290 1290 1290 31 1290 28 1290 1290 1290 10 23 30 29 24
1290 1290 35 1290 24 1290 39 46 1290 29 11 1290 1290 13 34 21 1290 1290 1290 34 1290 40 9 61 37 1290 37 1290 34 1290 1290 1290 32 1290 1290 1290 43 1290 1290 1290 25 34 1290 1290 1290 1290 1290 1290 1290 41 34 26 1290 1290 18 1290 1290 1290 0 1290 1290 1290 39 1290 43 12 1290 35 1290 56 1290 1290 37 1290 19 1290 44 26 1290 1290 1290 1290 1290 1290
1290 42 1290 1290 1290 1290 1290 46 41 1290 1290 42 19 1290 1290 1290 1290 38 1290 1290 45 1290 1290 1290 1290 1290 1290 42 1290 55 45 14 1290 47 32 1290 1290 1290 1290 21 1290 1290 1290 52 52 1290 49 45 26 1290 1290 1290 31 11 1290 46 1290 36 1290 0 1290 1290 1290 1290 1290 1290 1290 1290 39 1290 60 1290 1290 14 1290 1290 1290 1290 52 1290 1290 9 1290 1290
1290 29 1290 27 26 16 1290 28 1290 1290 1290 1290 46 1290 1290 19 11 1290 27 21 1290 1290 31 1290 3 1290 8 17 1290 1290 1290 1290 21 1290 1290 1290 1290 8 26 1290 14 38 18 1290 1290 1290 17 25 33 11 1290 1290 1290 1290 1290 1290 26 25 1290 1290 0 16 16 25 31 1290 23 1290 28 1290 1290 29 1290 1290 25 32 1290 29 1290 15 8 1290 28 8
1290 14 1290 1290 1290 6 1290 1290 1290 1290 1290 1290 31 1290 1290 1290 20 35 18 1290 25 1290 1290 1290 18 1290 19 11 1290 1290 1290 35 1290 1290 1290 1290 1290 9 16 43 1290 1290 1290 1290 1290 22 21 1290 21 21 1290 1290 1290 37 1290 1290 11 11 1290 1290 16 0 22 14 1290 1290 8 1290 26 1290 1290 24 1290 41 1290 23 1290 1290 1290 6 13 1290 21 18
1290 1290 1290 1290 35 1290 45 13 53 1290 29 1290 1290 27 1290 19 1290 1290 1290 1290 1290 48 34 1290 14 1290 8 14 43 1290 31 37 34 1290 1290 1290 1290 20 1290 1290 21 1290 1290 48 30 1290 2 10 28 27 29 1290 48 1290 43 1290 1290 25 39 1290 16 22 0 1290 1290 28 1290 1290 14 1290 1290 1290 1290 1290 21 1290 32 1290 1290 17 23 1290 1290 8
23 10 1290 1290 1290 9 1290 1290 1290 1290 1290 48 34 1290 1290 1290 23 29 6 1290 16 1290 1290 1290 1290 17 1290 24 1290 25 1290 44 1290 48 1290 1290 1290 17 4 42 1290 1290 1290 1290 1290 9 1290 1290 29 24 1290 1290 1290 41 1290 1290 9 19 1290 1290 25 14 1290 0 1290 1290 8 1290 1290 1290 22 14 1290 43 1290 10 1290 1290 1290 19 18 1290 10 1290
28 1290 1290 12 20 1290 1290 1290 1290 72 1290 1290 1290 1290 1290 1290 21 1290 1290 12 1290 1290 35 18 32 1290 1290 1290 1290 1290 1290 1290 14 1290 1290 25 14 1290 1290 1290 28 15 13 1290 1290 1290 1290 1290 1290 20 1290 1290 1290 1290 28 1290 1290 1290 43 1290 31 1290 1290 1290 0 1290 1290 1290 1290 13 52 30 1290 1290 1290 38 1290 18 1290 1290 28 1290 32 1290
1290 1290 36 1290 23 1290 34 34 1290 31 3 1290 1290 1 34 11 1290 1290 1290 1290 1290 37 11 1290 1290 1290 27 1290 30 1290 48 1290 1290 1290 1290 1290 46 1290 1290 1290 18 37 1290 61 42 1290 1290 35 1290 1290 26 28 1290 1290 23 1290 1290 1290 12 1290 1290 1290 28 1290 1290 0 1290 34 40 1290 1290 1290 35 1290 7 1290 35 27 69 1290 1290 1290 1290 1290
1290 7 1290 1290 1290 8 1290 1290 1290 1290 1290 1290 27 1290 1290 1290 25 28 14 1290 18 1290 1290 1290 1290 23 1290 17 1290 1290 1290 35 1290 1290 1290 1290 1290 15 12 38 1290 1290 1290 1290 1290 16 28 1290 21 25 1290 1290 1290 34 1290 1290 3 11 1290 1290 23 8 1290 8 1290 1290 0 1290 31 1290 1290 22 1290 37 1290 18 1290 1290 1290 12 18 1290 18 26
1290 1290 6 1290 1290 1290 11 48 1290 9 36 1290 1290 34 5 1290 1290 1290 1290 1290 1290 10 42 1290 1290 1290 1290 1290 9 1290 1290 1290 1290 1290 1290 1290 1290 1290 1290 1290 1290 1290 1290 54 1290 1290 1290 1290 1290 1290 24 11 1290 1290 52 1290 1290 1290 35 1290 1290 1290 1290 1290 1290 34 1290 0 1290 1290 1290 1290 3 1290 36 1290 29 1290 61 1290 1290 1290 1290 1290
1290 36 1290 1290 1290 1290 48 8 40 1290 1290 66 34 39 1290 33 1290 50 1290 1290 1290 50 1290 1290 27 1290 21 15 47 1290 22 25 1290 1290 42 1290 1290 29 1290 48 1290 1290 1290 37 23 1290 12 6 20 1290 32 1290 35 35 1290 48 33 23 1290 39 28 26 14 1290 1290 40 31 1290 0 1290 1290 1290 1290 42 33 1290 31 1290 43 21 1290 38 1290 21
24 1290 1290 15 33 1290 1290 1290 1290 85 1290 1290 1290 1290 1290 1290 30 1290 1290 25 1290 1290 48 5 1290 1290 1290 1290 1290 1290 1290 1290 27 1290 1290 16 20 1290 1290 1290 1290 25 23 1290 1290 1290 1290 1290 1290 30 1290 1290 1290 1290 40 1290 1290 1290 56 1290 1290 1290 1290 1290 13 1290 1290 1290 1290 0 49 30 1290 1290 1290 37 1290 31 1290 1290 36 1290 32 1290
25 24 1290 40 1290 31 1290 1290 1290 1290 1290 38 41 1290 1290 1290 42 24 20 1290 16 1290 1290 46 1290 6 1290 1290 1290 8 1290 1290 1290 36 87 34 66 1290 21 43 1290 1290 46 1290 1290 13 1290 1290 1290 1290 1290 1290 1290 1290 1290 1290 1290 1290 1290 60 1290 1290 1290 22 52 1290 1290 1290 1290 49 0 22 1290 1290 1290 16 1290 1290 1290 1290 39 1290 21 1290
10 23 1290 18 1290 18 1290 1290 1290 1290 1290 1290 1290 1290 1290 1290 22 1290 8 32 26 1290 1290 28 32 20 1290 1290 1290 28 1290 1290 34 56 1290 18 44 23 10 1290 40 45 24 1290 1290 15 1290 1290 1290 23 1290 1290 1290 1290 1290 1290 1290 1290 1290 1290 29 24 1290 14 30 1290 22 1290 1290 30 22 0 1290 1290 1290 7 1290 1290 1290 1290 21 1290 4 1290
1290 1290 8 1290 1290 1290 9 47 66 11 38 1290 1290 35 7 1290 1290 1290 1290 1290 1290 8 1290 1290 1290 1290 1290 1290 8 1290 47 1290 1290 1290 1290 1290 1290 1290 1290 1290 1290 1290 1290 52 40 1290 1290 1290 1290 1290 23 13 1290 1290 54 72 1290 1290 37 1290 1290 1290 1290 1290 1290 35 1290 3 1290 1290 1290 1290 0 1290 36 1290 28 1290 59 1290 1290 1290 1290 1290
1290 33 1290 1290 1290 1290 1290 1290 53 1290 1290 29 10 1290 1290 1290 1290 24 1290 1290 33 1290 1290 1290 1290 1290 1290 40 1290 42 54 20 1290 34 45 1290 1290 1290 1290 8 1290 1290 1290 1290 1290 43 1290 1290 24 1290 1290 1290 44 7 1290 59 34 31 1290 14 1290 41 1290 43 1290 1290 37 1290 42 1290 1290 1290 1290 0 1290 1290 1290 1290 1290 40 1290 5 1290 1290
1290 1290 1290 1290 25 1290 34 27 65 1290 9 1290 1290 5 1290 8 1290 1290 1290 1290 1290 37 16 1290 23 1290 21 34 31 1290 42 58 29 1290 1290 1290 1290 1290 1290 1290 15 1290 1290 56 37 1290 24 28 49 32 23 32 64 1290 28 1290 1290 1290 19 1290 25 1290 21 1290 1290 7 1290 36 33 1290 1290 1290 36 1290 0 1290 31 1290 1290 36 1290 1290 1290 21
15 18 1290 25 1290 17 1290 1290 1290 1290 1290 49 41 1290 1290 1290 26 32 5 1290 18 1290 1290 36 1290 13 1290 1290 1290 22 1290 1290 1290 48 1290 25 1290 24 6 1290 1290 1290 30 1290 1290 7 1290 1290 1290 27 1290 1290 1290 1290 1290 1290 18 28 1290 1290 32 23 1290 10 38 1290 18 1290 1290 37 16 7 1290 1290 1290 0 1290 1290 1290 1290 24 1290 6 1290
1290 1290 35 1290 1290 1290 19 23 41 36 38 1290 1290 34 34 37 1290 1290 1290 1290 1290 21 1290 1290 1290 1290 38 43 20 1290 20 51 1290 1290 51 1290 1290 1290 1290 1290 1290 1290 1290 28 12 1290 33 28 50 1290 9 35 43 1290 1290 47 1290 1290 44 1290 1290 1290 32 1290 1290 35 1290 29 31 1290 1290 1290 28 1290 31 1290 0 1290 36 1290 1290 1290 1290 39
1290 1290 60 27 4 1290 1290 1290 1290 55 24 1290 1290 1290 59 23 24 1290 1290 11 1290 1290 18 35 28 1290 33 1290 1290 1290 1290 1290 10 1290 1290 1290 19 1290 1290 1290 18 11 19 1290 1290 1290 1290 1290 1290 24 1290 52 1290 1290 11 1290 1290 1290 26 1290 29 1290 1290 1290 18 27 1290 1290 1290 31 1290 1290 1290 1290 1290 1290 1290 0 1290 1290 31 1290 1290 1290
1290 1290 67 1290 1290 1290 50 42 12 69 1290 93 1290 1290 66 1290 1290 1290 1290 1290 1290 51 1290 1290 1290 1290 1290 1290 53 1290 23 46 1290 1290 24 1290 1290 1290 1290 1290 1290 1290 1290 8 27 1290 1290 1290 1290 1290 45 69 21 1290 1290 13 1290 1290 1290 52 1290 1290 1290 1290 1290 69 1290 61 43 1290 1290 1290 59 1290 1290 1290 36 1290 0 1290 1290 1290 1290 1290
1290 18 1290 1290 1290 12 1290 25 1290 1290 1290 1290 31 1290 1290 31 22 38 1290 35 30 1290 1290 1290 16 1290 15 6 1290 1290 42 32 35 1290 1290 1290 1290 11 22 43 28 1290 30 1290 1290 28 15 21 18 23 1290 1290 1290 36 1290 1290 15 10 1290 1290 15 6 17 19 1290 1290 12 1290 21 1290 1290 1290 1290 40 36 1290 1290 1290 1290 0 15 1290 27 15
29 24 1290 21 29 10 1290 1290 1290 1290 1290 1290 1290 1290 1290 26 8 1290 19 21 1290 1290 37 38 11 35 16 19 1290 1290 1290 1290 22 1290 1290 34 1290 4 18 1290 20 38 15 1290 1290 27 23 1290 1290 8 1290 1290 1290 1290 1290 1290 21 23 1290 1290 8 13 23 18 28 1290 18 1290 1290 36 39 21 1290 1290 1290 24 1290 31 1290 15 0 1290 19 15
1290 34 1290 1290 1290 1290 1290 1290 48 1290 1290 34 10 1290 1290 1290 1290 28 1290 1290 1290 1290 1290 1290 1290 1290 1290 1290 1290 1290 49 15 1290 40 40 1290 1290 1290 1290 13 1290 1290 1290 1290 1290 1290 1290 1290 21 1290 1290 1290 39 3 1290 54 1290 30 1290 9 1290 1290 1290 1290 1290 1290 1290 1290 38 1290 1290 1290 1290 5 1290 1290 1290 1290 1290 1290 1290 0 1290 1290
13 20 1290 20 1290 15 1290 1290 1290 1290 1290 1290 1290 1290 1290 1290 21 1290 4 32 23 1290 1290 32 30 19 1290 1290 1290 27 1290 1290 34 54 1290 22 1290 21 6 1290 39 1290 24 1290 1290 12 1290 1290 1290 22 1290 1290 1290 1290 1290 1290 19 29 1290 1290 28 21 1290 10 32 1290 18 1290 1290 32 21 4 1290 1290 1290 6 1290 1290 1290 27 19 1290 0 34
1290 32 1290 1290 29 21 1290 21 1290 1290 27 1290 44 26 1290 16 19 1290 1290 27 1290 1290 31 1290 6 1290 1 14 1290 1290 40 42 26 1290 1290 1290 1290 14 1290 1290 15 1290 25 1290 38 1290 9 17 30 19 35 1290 1290 1290 1290 1290 29 24 1290 1290 8 18 8 1290 1290 1290 26 1290 21 1290 1290 1290 1290 1290 21 1290 39 1290 1290 15 15 1290 34 0
EOF
